\* Source Pyomo model name=unknown *\

min 
x135:
+492.39055000000002 x101
+492.39055000000002 x104
+492.39055000000002 x107
-5 x31
-5 x32
-5 x33
-5 x34
-5 x35
-5 x36
-5 x37
-5 x38
-5 x39
-5 x40
+492.39055000000002 x72
+492.39055000000002 x75
+492.39055000000002 x78
+492.39055000000002 x81
+492.39055000000002 x84
+492.39055000000002 x87
+492.39055000000002 x90
+492.39055000000002 x95
+492.39055000000002 x98

s.t.

c_e_x136_:
-1 x113
+1 x71
+1 x72
+1 x73
= 0

c_e_x137_:
-1 x71
+1 x74
+1 x75
+1 x76
= 0

c_e_x138_:
-1 x74
+1 x77
+1 x78
+1 x79
= 0

c_e_x139_:
-1 x77
+1 x80
+1 x81
+1 x82
= 0

c_e_x140_:
-1 x80
+1 x83
+1 x84
+1 x85
-1 x95
= 0

c_e_x141_:
-1 x83
+1 x86
+1 x87
+1 x88
-1 x98
= 0

c_e_x142_:
-1 x101
-1 x86
+1 x89
+1 x90
+1 x91
= 0

c_e_x143_:
-1 x104
-1 x89
+1 x92
+1 x93
= 0

c_e_x144_:
-1 x107
-1 x92
+1 x94
= 0

c_e_x145_:
-1 x72
+1 x95
+1 x96
+1 x97
= 0

c_e_x146_:
+1 x100
-1 x75
-1 x96
+1 x98
+1 x99
= 0

c_e_x147_:
+1 x101
+1 x102
+1 x103
-1 x78
-1 x99
= 0

c_e_x148_:
-1 x102
+1 x104
+1 x105
+1 x106
-1 x81
= 0

c_e_x149_:
-1 x105
+1 x107
+1 x108
+1 x109
-1 x84
= 0

c_e_x150_:
-1 x108
+1 x110
+1 x111
-1 x87
= 0

c_e_x151_:
-1 x110
+1 x112
-1 x90
= 0

c_e_x152_:
+1 x113
+1 x114
= 1

c_e_x153_:
+1 x100
+1 x103
+1 x106
+1 x109
+1 x111
+1 x112
+1 x114
+1 x73
+1 x76
+1 x79
+1 x82
+1 x85
+1 x88
+1 x91
+1 x93
+1 x94
+1 x97
= 1

c_e_x154_:
-1 x1
+1 x21
+1 x41
= 297

c_e_x155_:
-1 x2
+1 x22
-1 x41
+1 x42
= 0

c_e_x156_:
+1 x23
-1 x3
-1 x42
+1 x43
= 0

c_e_x157_:
+1 x24
-1 x4
-1 x43
+1 x44
= 0

c_e_x158_:
+1 x25
-1 x44
+1 x45
-1 x5
= 0

c_e_x159_:
+1 x26
-1 x45
+1 x46
-1 x6
= 0

c_e_x160_:
+1 x27
-1 x46
+1 x47
-1 x7
= 0

c_e_x161_:
+1 x28
-1 x47
+1 x48
-1 x8
= 0

c_e_x162_:
+1 x29
-1 x48
+1 x49
-1 x9
= 0

c_e_x163_:
-1 x10
+1 x30
-1 x49
+1 x50
= 0

c_e_x164_:
+1 x11
-1 x31
+1 x51
= 168

c_e_x165_:
+1 x12
-1 x32
-1 x51
+1 x52
= 0

c_e_x166_:
+1 x13
-1 x33
-1 x52
+1 x53
= 0

c_e_x167_:
+1 x14
-1 x34
-1 x53
+1 x54
= 0

c_e_x168_:
+1 x15
-1 x35
-1 x54
+1 x55
= 0

c_e_x169_:
+1 x16
-1 x36
-1 x55
+1 x56
= 0

c_e_x170_:
+1 x17
-1 x37
-1 x56
+1 x57
= 0

c_e_x171_:
+1 x18
-1 x38
-1 x57
+1 x58
= 0

c_e_x172_:
+1 x19
-1 x39
-1 x58
+1 x59
= 0

c_e_x173_:
+1 x20
-1 x40
-1 x59
+1 x60
= 0

c_e_x174_:
-1 x21
+1 x31
+1 x61
= 300

c_e_x175_:
-1 x22
+1 x32
-1 x61
+1 x62
= 0

c_e_x176_:
-1 x23
+1 x33
-1 x62
+1 x63
= 0

c_e_x177_:
-1 x24
+1 x34
-1 x63
+1 x64
= 0

c_e_x178_:
-1 x25
+1 x35
-1 x64
+1 x65
= 0

c_e_x179_:
-1 x26
+1 x36
-1 x65
+1 x66
= 0

c_e_x180_:
-1 x27
+1 x37
-1 x66
+1 x67
= 0

c_e_x181_:
-1 x28
+1 x38
-1 x67
+1 x68
= 0

c_e_x182_:
-1 x29
+1 x39
-1 x68
+1 x69
= 0

c_e_x183_:
-1 x30
+1 x40
-1 x69
+1 x70
= 0

c_u_x184_:
+1 x115
<= 1

c_u_x185_:
+1 x116
<= 1

c_u_x186_:
+1 x117
<= 1

c_u_x187_:
+1 x118
<= 1

c_u_x188_:
+1 x119
<= 1

c_u_x189_:
+1 x120
<= 1

c_u_x190_:
+1 x121
<= 1

c_u_x191_:
+1 x122
<= 1

c_u_x192_:
+1 x123
<= 1

c_u_x193_:
+1 x124
<= 1

c_u_x194_:
+1 x125
<= 1

c_u_x195_:
+1 x126
<= 1

c_u_x196_:
+1 x127
<= 1

c_u_x197_:
+1 x128
<= 1

c_u_x198_:
+1 x129
<= 1

c_u_x199_:
+1 x130
<= 1

c_u_x200_:
+1 x131
<= 1

c_u_x201_:
+1 x132
<= 1

c_u_x202_:
+1 x133
<= 1

c_u_x203_:
+1 x134
<= 1

c_u_x204_:
+1 x115
<= 0

c_u_x205_:
-1 x113
+1 x116
<= 0

c_u_x206_:
+1 x117
-1 x71
<= 0

c_u_x207_:
+1 x118
-1 x74
<= 0

c_u_x208_:
+1 x119
-1 x77
<= 0

c_u_x209_:
+1 x120
-1 x80
-1 x95
<= 0

c_u_x210_:
+1 x121
-1 x83
-1 x98
<= 0

c_u_x211_:
-1 x101
+1 x122
-1 x86
<= 0

c_u_x212_:
-1 x104
+1 x123
-1 x89
<= 0

c_u_x213_:
-1 x107
+1 x124
-1 x92
<= 0

c_u_x214_:
+1 x125
<= 0

c_u_x215_:
+1 x126
<= 0

c_u_x216_:
+1 x127
<= 0

c_u_x217_:
+1 x128
-1 x72
<= 0

c_u_x218_:
+1 x129
-1 x75
-1 x96
<= 0

c_u_x219_:
+1 x130
-1 x78
-1 x99
<= 0

c_u_x220_:
-1 x102
+1 x131
-1 x81
<= 0

c_u_x221_:
-1 x105
+1 x132
-1 x84
<= 0

c_u_x222_:
-1 x108
+1 x133
-1 x87
<= 0

c_u_x223_:
-1 x110
+1 x134
-1 x90
<= 0

c_u_x224_:
+35 x115
-1 x21
<= 0

c_u_x225_:
+35 x116
-1 x22
<= 0

c_u_x226_:
+35 x117
-1 x23
<= 0

c_u_x227_:
+35 x118
-1 x24
<= 0

c_u_x228_:
+35 x119
-1 x25
<= 0

c_u_x229_:
+35 x120
-1 x26
<= 0

c_u_x230_:
+35 x121
-1 x27
<= 0

c_u_x231_:
+35 x122
-1 x28
<= 0

c_u_x232_:
+35 x123
-1 x29
<= 0

c_u_x233_:
+35 x124
-1 x30
<= 0

c_u_x234_:
+50 x125
-1 x31
<= 0

c_u_x235_:
+50 x126
-1 x32
<= 0

c_u_x236_:
+50 x127
-1 x33
<= 0

c_u_x237_:
+50 x128
-1 x34
<= 0

c_u_x238_:
+50 x129
-1 x35
<= 0

c_u_x239_:
+50 x130
-1 x36
<= 0

c_u_x240_:
+50 x131
-1 x37
<= 0

c_u_x241_:
+50 x132
-1 x38
<= 0

c_u_x242_:
+50 x133
-1 x39
<= 0

c_u_x243_:
+50 x134
-1 x40
<= 0

c_u_x244_:
-300 x115
+1 x21
<= 0

c_u_x245_:
-300 x116
+1 x22
<= 0

c_u_x246_:
-300 x117
+1 x23
<= 0

c_u_x247_:
-300 x118
+1 x24
<= 0

c_u_x248_:
-300 x119
+1 x25
<= 0

c_u_x249_:
-300 x120
+1 x26
<= 0

c_u_x250_:
-300 x121
+1 x27
<= 0

c_u_x251_:
-300 x122
+1 x28
<= 0

c_u_x252_:
-300 x123
+1 x29
<= 0

c_u_x253_:
-300 x124
+1 x30
<= 0

c_u_x254_:
-300 x125
+1 x31
<= 0

c_u_x255_:
-300 x126
+1 x32
<= 0

c_u_x256_:
-300 x127
+1 x33
<= 0

c_u_x257_:
-300 x128
+1 x34
<= 0

c_u_x258_:
-300 x129
+1 x35
<= 0

c_u_x259_:
-300 x130
+1 x36
<= 0

c_u_x260_:
-300 x131
+1 x37
<= 0

c_u_x261_:
-300 x132
+1 x38
<= 0

c_u_x262_:
-300 x133
+1 x39
<= 0

c_u_x263_:
-300 x134
+1 x40
<= 0

c_l_x264_:
+1 x1
>= 30

c_l_x265_:
+1 x2
>= 30

c_l_x266_:
+1 x3
>= 30

c_l_x267_:
+1 x4
>= 30

c_l_x268_:
+1 x5
>= 30

c_l_x269_:
+1 x6
>= 30

c_l_x270_:
+1 x7
>= 30

c_l_x271_:
+1 x8
>= 30

c_l_x272_:
+1 x9
>= 30

c_l_x273_:
+1 x10
>= 30

c_l_x274_:
+1 x11
>= 30

c_l_x275_:
+1 x12
>= 30

c_l_x276_:
+1 x13
>= 30

c_l_x277_:
+1 x14
>= 30

c_l_x278_:
+1 x15
>= 30

c_l_x279_:
+1 x16
>= 30

c_l_x280_:
+1 x17
>= 30

c_l_x281_:
+1 x18
>= 30

c_l_x282_:
+1 x19
>= 30

c_l_x283_:
+1 x20
>= 30

c_u_x284_:
+1 x1
<= 99

c_u_x285_:
+1 x2
<= 99

c_u_x286_:
+1 x3
<= 99

c_u_x287_:
+1 x4
<= 99

c_u_x288_:
+1 x5
<= 99

c_u_x289_:
+1 x6
<= 99

c_u_x290_:
+1 x7
<= 99

c_u_x291_:
+1 x8
<= 99

c_u_x292_:
+1 x9
<= 99

c_u_x293_:
+1 x10
<= 99

c_u_x294_:
+1 x11
<= 39

c_u_x295_:
+1 x12
<= 39

c_u_x296_:
+1 x13
<= 39

c_u_x297_:
+1 x14
<= 39

c_u_x298_:
+1 x15
<= 39

c_u_x299_:
+1 x16
<= 39

c_u_x300_:
+1 x17
<= 39

c_u_x301_:
+1 x18
<= 39

c_u_x302_:
+1 x19
<= 39

c_u_x303_:
+1 x20
<= 39

c_l_x304_:
+1 x41
>= 0

c_l_x305_:
+1 x42
>= 0

c_l_x306_:
+1 x43
>= 0

c_l_x307_:
+1 x44
>= 0

c_l_x308_:
+1 x45
>= 0

c_l_x309_:
+1 x46
>= 0

c_l_x310_:
+1 x47
>= 0

c_l_x311_:
+1 x48
>= 0

c_l_x312_:
+1 x49
>= 0

c_l_x313_:
+1 x50
>= 0

c_l_x314_:
+1 x51
>= 0

c_l_x315_:
+1 x52
>= 0

c_l_x316_:
+1 x53
>= 0

c_l_x317_:
+1 x54
>= 0

c_l_x318_:
+1 x55
>= 0

c_l_x319_:
+1 x56
>= 0

c_l_x320_:
+1 x57
>= 0

c_l_x321_:
+1 x58
>= 0

c_l_x322_:
+1 x59
>= 0

c_l_x323_:
+1 x60
>= 0

c_u_x324_:
+1 x41
<= 594

c_u_x325_:
+1 x42
<= 594

c_u_x326_:
+1 x43
<= 594

c_u_x327_:
+1 x44
<= 594

c_u_x328_:
+1 x45
<= 594

c_u_x329_:
+1 x46
<= 594

c_u_x330_:
+1 x47
<= 594

c_u_x331_:
+1 x48
<= 594

c_u_x332_:
+1 x49
<= 594

c_u_x333_:
+1 x50
<= 594

c_u_x334_:
+1 x51
<= 351

c_u_x335_:
+1 x52
<= 351

c_u_x336_:
+1 x53
<= 351

c_u_x337_:
+1 x54
<= 351

c_u_x338_:
+1 x55
<= 351

c_u_x339_:
+1 x56
<= 351

c_u_x340_:
+1 x57
<= 351

c_u_x341_:
+1 x58
<= 351

c_u_x342_:
+1 x59
<= 351

c_u_x343_:
+1 x60
<= 351

c_u_x344_:
+1 x61
<= 300

c_u_x345_:
+1 x62
<= 300

c_u_x346_:
+1 x63
<= 300

c_u_x347_:
+1 x64
<= 300

c_u_x348_:
+1 x65
<= 300

c_u_x349_:
+1 x66
<= 300

c_u_x350_:
+1 x67
<= 300

c_u_x351_:
+1 x68
<= 300

c_u_x352_:
+1 x69
<= 300

c_u_x353_:
+1 x70
<= 300

c_l_x354_:
+1 x61
>= 0

c_l_x355_:
+1 x62
>= 0

c_l_x356_:
+1 x63
>= 0

c_l_x357_:
+1 x64
>= 0

c_l_x358_:
+1 x65
>= 0

c_l_x359_:
+1 x66
>= 0

c_l_x360_:
+1 x67
>= 0

c_l_x361_:
+1 x68
>= 0

c_l_x362_:
+1 x69
>= 0

c_l_x363_:
+1 x70
>= 0

c_e_ONE_VAR_CONSTANT: 
ONE_VAR_CONSTANT = 1.0

bounds
   0 <= x1 <= 1e30
   0 <= x2 <= 1e30
   0 <= x3 <= 1e30
   0 <= x4 <= 1e30
   0 <= x5 <= 1e30
   0 <= x6 <= 1e30
   0 <= x7 <= 1e30
   0 <= x8 <= 1e30
   0 <= x9 <= 1e30
   0 <= x10 <= 1e30
   0 <= x11 <= 1e30
   0 <= x12 <= 1e30
   0 <= x13 <= 1e30
   0 <= x14 <= 1e30
   0 <= x15 <= 1e30
   0 <= x16 <= 1e30
   0 <= x17 <= 1e30
   0 <= x18 <= 1e30
   0 <= x19 <= 1e30
   0 <= x20 <= 1e30
   0 <= x21 <= 1e30
   0 <= x22 <= 1e30
   0 <= x23 <= 1e30
   0 <= x24 <= 1e30
   0 <= x25 <= 1e30
   0 <= x26 <= 1e30
   0 <= x27 <= 1e30
   0 <= x28 <= 1e30
   0 <= x29 <= 1e30
   0 <= x30 <= 1e30
   0 <= x31 <= 1e30
   0 <= x32 <= 1e30
   0 <= x33 <= 1e30
   0 <= x34 <= 1e30
   0 <= x35 <= 1e30
   0 <= x36 <= 1e30
   0 <= x37 <= 1e30
   0 <= x38 <= 1e30
   0 <= x39 <= 1e30
   0 <= x40 <= 1e30
   0 <= x41 <= 1e30
   0 <= x42 <= 1e30
   0 <= x43 <= 1e30
   0 <= x44 <= 1e30
   0 <= x45 <= 1e30
   0 <= x46 <= 1e30
   0 <= x47 <= 1e30
   0 <= x48 <= 1e30
   0 <= x49 <= 1e30
   0 <= x50 <= 1e30
   0 <= x51 <= 1e30
   0 <= x52 <= 1e30
   0 <= x53 <= 1e30
   0 <= x54 <= 1e30
   0 <= x55 <= 1e30
   0 <= x56 <= 1e30
   0 <= x57 <= 1e30
   0 <= x58 <= 1e30
   0 <= x59 <= 1e30
   0 <= x60 <= 1e30
   0 <= x61 <= 1e30
   0 <= x62 <= 1e30
   0 <= x63 <= 1e30
   0 <= x64 <= 1e30
   0 <= x65 <= 1e30
   0 <= x66 <= 1e30
   0 <= x67 <= 1e30
   0 <= x68 <= 1e30
   0 <= x69 <= 1e30
   0 <= x70 <= 1e30
   0 <= x71 <= 1
   0 <= x72 <= 1
   0 <= x73 <= 1
   0 <= x74 <= 1
   0 <= x75 <= 1
   0 <= x76 <= 1
   0 <= x77 <= 1
   0 <= x78 <= 1
   0 <= x79 <= 1
   0 <= x80 <= 1
   0 <= x81 <= 1
   0 <= x82 <= 1
   0 <= x83 <= 1
   0 <= x84 <= 1
   0 <= x85 <= 1
   0 <= x86 <= 1
   0 <= x87 <= 1
   0 <= x88 <= 1
   0 <= x89 <= 1
   0 <= x90 <= 1
   0 <= x91 <= 1
   0 <= x92 <= 1
   0 <= x93 <= 1
   0 <= x94 <= 1
   0 <= x95 <= 1
   0 <= x96 <= 1
   0 <= x97 <= 1
   0 <= x98 <= 1
   0 <= x99 <= 1
   0 <= x100 <= 1
   0 <= x101 <= 1
   0 <= x102 <= 1
   0 <= x103 <= 1
   0 <= x104 <= 1
   0 <= x105 <= 1
   0 <= x106 <= 1
   0 <= x107 <= 1
   0 <= x108 <= 1
   0 <= x109 <= 1
   0 <= x110 <= 1
   0 <= x111 <= 1
   0 <= x112 <= 1
   0 <= x113 <= 1
   0 <= x114 <= 1
   0 <= x115 <= 1
   0 <= x116 <= 1
   0 <= x117 <= 1
   0 <= x118 <= 1
   0 <= x119 <= 1
   0 <= x120 <= 1
   0 <= x121 <= 1
   0 <= x122 <= 1
   0 <= x123 <= 1
   0 <= x124 <= 1
   0 <= x125 <= 1
   0 <= x126 <= 1
   0 <= x127 <= 1
   0 <= x128 <= 1
   0 <= x129 <= 1
   0 <= x130 <= 1
   0 <= x131 <= 1
   0 <= x132 <= 1
   0 <= x133 <= 1
   0 <= x134 <= 1
binary
  x71
  x72
  x73
  x74
  x75
  x76
  x77
  x78
  x79
  x80
  x81
  x82
  x83
  x84
  x85
  x86
  x87
  x88
  x89
  x90
  x91
  x92
  x93
  x94
  x95
  x96
  x97
  x98
  x99
  x100
  x101
  x102
  x103
  x104
  x105
  x106
  x107
  x108
  x109
  x110
  x111
  x112
  x113
  x114
  x115
  x116
  x117
  x118
  x119
  x120
  x121
  x122
  x123
  x124
  x125
  x126
  x127
  x128
  x129
  x130
  x131
  x132
  x133
  x134
end
